100 80011

 549 458
342 547
839 536
407 540
425 484
744 976
93 16
848 571
614 977
412 243
432 950
678 207
159 912
14 271
373 761
225 994
505 779
73 705
249 847
511 730
603 115
216 580
973 299
602 837
541 483
947 397
817 394
939 75
988 978
220 482
840 103
727 297
221 178
389 215
554 967
647 315
42 39
676 259
873 716
283 7
58 49
814 538
834 161
537 869
73 176
885 591
923 2
129 895
599 455
842 928
426 644
948 276
665 498
694 629
125 676
67 800
6 28
637 333
314 1
326 188
565 56
578 547
826 112
506 798
82 310
599 36
2 439
204 729
662 592
805 826
404 595
103 577
536 325
368 640
212 307
577 534
961 728
209 619
763 109
897 372
117 357
628 181
749 356
478 676
105 68
495 292
771 692
46 181
823 466
331 434
216 464
982 681
960 914
492 534
813 66
922 21
845 612
449 384
536 812
511 615
